=obj=                29
x1                   0
x2                   0
x3                   0
x4                   0
x5                   1
x6                   0
x7                   0
x8                   0
x9                   0
x10                  0
x11                  0
x12                  0
x13                  0
x14                  0
x15                  0
x16                  0
x17                  0
x18                  0
x19                  0
x20                  0
x21                  0
x22                  0
x23                  0
x24                  0
x25                  0
x26                  0
x27                  0
x28                  0
x29                  0
x30                  0
x31                  0
x32                  1
x33                  0
x34                  1
x35                  1
x36                  0
x37                  0
x38                  1
x39                  0
x40                  1
x41                  0
x42                  1
x43                  0
x44                  0
x45                  1
x46                  1
x47                  1
x48                  0
x49                  0
x50                  1
x51                  0
x52                  1
x53                  1
x54                  1
x55                  0
x56                  1
x57                  0
x58                  0
x59                  0
x60                  0
x61                  0
x62                  0
x63                  1
x64                  1
x65                  0
x66                  0
x67                  0
x68                  1
x69                  1
x70                  0
x71                  1
x72                  0
x73                  0
x74                  0
x75                  0
x76                  0
x77                  0
x78                  0
x79                  0
x80                  1
x81                  1
x82                  0
x83                  0
x84                  1
x85                  1
x86                  0
x87                  1
x88                  0
x89                  1
x90                  0
x91                  0
x92                  0
x93                  1
x94                  0
x95                  0
x96                  0
x97                  0
x98                  1
x99                  1
x100                 0
